33D32945 STP File, STP Format Version 1.0

SECTION Comment
Name    "Series C" 
Creator "A. M. Costa" 
Format  "Z.H. Fu and J. K. Hao"
Remark  "Sparse graph with random weights"
#TotalEdgeCost 3429
#BudgetFraction 10
END 

SECTION Graph 
Nodes 500 
Edges 625 
Root 1
Budget 342
HopLimit 15
E 1 218 10 
E 1 351 9 
E 1 391 8 
E 1 484 10 
E 2 234 1 
E 3 225 1 
E 3 364 4 
E 4 463 5 
E 4 483 6 
E 5 336 3 
E 5 480 9 
E 6 31 3 
E 6 65 2 
E 6 190 10 
E 7 463 4 
E 8 53 5 
E 8 444 2 
E 9 137 10 
E 9 265 2 
E 9 300 1 
E 10 35 4 
E 10 216 9 
E 10 399 7 
E 10 443 9 
E 11 138 10 
E 11 468 6 
E 11 497 5 
E 12 353 3 
E 12 421 1 
E 13 144 3 
E 13 186 9 
E 13 219 5 
E 13 229 1 
E 13 344 5 
E 13 347 3 
E 13 464 1 
E 14 446 8 
E 15 104 6 
E 15 316 1 
E 15 484 3 
E 16 68 7 
E 16 104 3 
E 16 116 3 
E 16 255 2 
E 17 57 1 
E 18 130 6 
E 19 373 1 
E 20 113 4 
E 20 159 3 
E 21 154 3 
E 21 498 10 
E 22 287 9 
E 22 378 6 
E 22 447 6 
E 22 494 5 
E 23 265 3 
E 24 84 8 
E 24 181 10 
E 24 355 9 
E 24 371 7 
E 25 334 7 
E 25 471 8 
E 26 95 6 
E 26 216 8 
E 26 237 6 
E 27 365 7 
E 28 268 8 
E 28 284 8 
E 28 297 6 
E 28 427 2 
E 29 269 9 
E 30 246 7 
E 31 232 2 
E 31 453 3 
E 32 42 5 
E 33 186 4 
E 33 384 8 
E 34 325 2 
E 35 196 7 
E 35 498 2 
E 36 219 10 
E 36 405 6 
E 37 61 2 
E 37 237 6 
E 37 393 10 
E 37 426 8 
E 38 290 10 
E 38 324 3 
E 38 453 10 
E 38 473 7 
E 39 199 4 
E 40 194 1 
E 41 199 8 
E 41 372 8 
E 42 256 9 
E 42 258 4 
E 43 164 9 
E 43 202 7 
E 43 241 6 
E 43 315 7 
E 43 326 6 
E 43 461 7 
E 44 132 3 
E 44 293 7 
E 44 330 2 
E 45 453 6 
E 46 387 6 
E 47 276 1 
E 47 471 2 
E 47 476 2 
E 48 184 7 
E 48 351 4 
E 49 497 2 
E 50 180 8 
E 51 183 9 
E 52 77 6 
E 52 93 9 
E 53 407 3 
E 53 417 6 
E 54 439 9 
E 54 456 5 
E 55 119 6 
E 55 179 1 
E 56 104 9 
E 57 211 2 
E 57 262 2 
E 57 298 9 
E 58 320 5 
E 58 493 9 
E 59 222 6 
E 59 259 3 
E 60 139 7 
E 60 235 9 
E 60 325 6 
E 60 370 1 
E 61 417 4 
E 61 492 1 
E 62 175 1 
E 63 246 10 
E 63 417 4 
E 63 483 4 
E 64 193 1 
E 64 386 8 
E 64 401 10 
E 65 164 9 
E 65 243 1 
E 66 436 4 
E 67 273 2 
E 68 285 9 
E 68 344 4 
E 68 425 1 
E 68 475 6 
E 69 439 9 
E 70 264 5 
E 70 397 1 
E 71 256 9 
E 71 267 4 
E 72 112 8 
E 72 216 10 
E 73 176 2 
E 74 79 6 
E 75 325 2 
E 76 356 7 
E 76 370 4 
E 77 279 5 
E 77 284 1 
E 77 314 1 
E 78 159 2 
E 78 301 7 
E 79 108 10 
E 79 115 7 
E 79 156 1 
E 79 189 4 
E 79 279 8 
E 79 415 2 
E 80 426 3 
E 81 453 1 
E 81 484 2 
E 82 284 6 
E 82 331 7 
E 83 85 1 
E 83 238 2 
E 83 354 10 
E 84 107 4 
E 84 277 6 
E 84 459 10 
E 86 171 7 
E 87 250 5 
E 87 390 1 
E 88 217 10 
E 88 482 8 
E 88 492 2 
E 89 93 4 
E 89 361 7 
E 90 123 2 
E 91 158 4 
E 91 394 8 
E 91 442 1 
E 92 498 9 
E 93 205 6 
E 93 294 8 
E 94 247 7 
E 96 296 4 
E 96 335 4 
E 97 404 6 
E 97 482 5 
E 98 262 2 
E 98 475 8 
E 99 101 5 
E 99 364 9 
E 99 462 3 
E 100 411 5 
E 100 496 9 
E 101 341 4 
E 102 138 7 
E 102 233 6 
E 103 129 6 
E 103 159 9 
E 103 330 3 
E 104 190 4 
E 104 196 2 
E 104 310 1 
E 104 379 8 
E 104 380 3 
E 104 439 3 
E 104 483 3 
E 105 119 1 
E 105 180 8 
E 105 303 7 
E 106 224 2 
E 106 366 2 
E 107 395 9 
E 107 416 4 
E 108 435 3 
E 109 244 6 
E 110 142 5 
E 110 200 8 
E 110 296 9 
E 111 234 10 
E 111 345 2 
E 112 254 6 
E 113 268 6 
E 113 447 8 
E 114 304 10 
E 114 450 5 
E 116 191 2 
E 116 419 7 
E 116 460 5 
E 116 489 9 
E 117 190 9 
E 117 321 5 
E 118 207 2 
E 118 240 1 
E 119 199 8 
E 120 275 5 
E 120 359 3 
E 120 381 1 
E 121 122 10 
E 121 152 4 
E 121 379 9 
E 121 471 3 
E 122 151 1 
E 123 177 8 
E 123 308 7 
E 123 458 7 
E 124 392 2 
E 125 415 4 
E 126 184 2 
E 127 287 6 
E 127 301 9 
E 127 312 3 
E 127 347 8 
E 128 329 7 
E 128 347 5 
E 128 444 4 
E 129 136 3 
E 129 278 7 
E 129 491 10 
E 130 214 9 
E 130 445 10 
E 131 152 2 
E 131 347 8 
E 131 368 1 
E 131 497 2 
E 132 301 9 
E 132 463 9 
E 133 329 6 
E 134 196 8 
E 134 403 8 
E 134 455 10 
E 135 158 1 
E 135 253 6 
E 135 414 5 
E 137 398 8 
E 138 398 6 
E 140 278 6 
E 140 401 1 
E 141 386 5 
E 142 285 3 
E 142 430 5 
E 143 333 6 
E 144 324 6 
E 144 429 4 
E 145 379 6 
E 146 147 7 
E 146 164 2 
E 146 201 8 
E 146 325 9 
E 146 338 5 
E 146 339 5 
E 146 346 3 
E 146 466 2 
E 146 471 8 
E 147 338 4 
E 148 220 4 
E 148 458 5 
E 149 390 8 
E 150 364 1 
E 151 172 7 
E 151 236 8 
E 153 405 2 
E 155 374 9 
E 157 192 4 
E 157 208 4 
E 157 277 3 
E 158 185 4 
E 158 204 1 
E 158 221 2 
E 158 285 4 
E 158 477 1 
E 159 210 6 
E 160 233 5 
E 160 318 3 
E 160 353 5 
E 161 324 2 
E 161 409 6 
E 161 429 2 
E 162 166 7 
E 162 227 8 
E 163 178 10 
E 163 358 3 
E 164 313 1 
E 164 319 5 
E 164 345 6 
E 164 488 10 
E 165 432 1 
E 166 366 7 
E 167 267 4 
E 168 200 8 
E 168 245 9 
E 168 274 1 
E 168 285 6 
E 168 425 8 
E 169 211 1 
E 170 203 6 
E 170 225 10 
E 170 454 8 
E 171 195 5 
E 171 286 9 
E 171 333 9 
E 171 429 4 
E 171 450 2 
E 173 355 5 
E 173 482 5 
E 174 189 1 
E 175 281 2 
E 176 342 9 
E 176 440 9 
E 176 449 3 
E 178 205 10 
E 180 277 8 
E 180 393 10 
E 180 407 2 
E 180 460 10 
E 182 428 7 
E 183 318 5 
E 183 376 6 
E 184 201 8 
E 184 468 8 
E 185 212 5 
E 186 206 5 
E 186 347 10 
E 187 258 2 
E 187 343 5 
E 187 424 1 
E 187 434 5 
E 187 444 3 
E 188 298 9 
E 188 406 7 
E 189 307 9 
E 190 238 9 
E 190 301 3 
E 192 424 5 
E 193 423 6 
E 194 380 3 
E 196 289 8 
E 196 387 4 
E 196 396 3 
E 196 470 10 
E 197 376 8 
E 198 458 1 
E 199 483 7 
E 201 481 7 
E 203 269 3 
E 203 326 3 
E 203 474 5 
E 203 483 5 
E 205 402 2 
E 206 241 3 
E 207 399 5 
E 208 253 8 
E 208 255 9 
E 208 273 8 
E 208 438 9 
E 209 319 3 
E 210 344 5 
E 211 349 3 
E 211 406 5 
E 212 268 3 
E 212 499 7 
E 213 240 8 
E 213 484 8 
E 214 331 5 
E 214 475 3 
E 215 248 1 
E 215 319 4 
E 215 426 7 
E 215 470 10 
E 215 471 5 
E 217 247 6 
E 217 379 10 
E 219 231 4 
E 223 396 7 
E 224 225 10 
E 225 281 6 
E 225 325 7 
E 226 304 1 
E 226 438 8 
E 227 471 3 
E 228 269 3 
E 229 368 8 
E 230 373 3 
E 231 410 7 
E 232 337 5 
E 234 304 6 
E 234 353 7 
E 234 413 3 
E 234 422 4 
E 235 431 9 
E 235 487 5 
E 236 304 9 
E 238 367 4 
E 239 401 7 
E 239 464 7 
E 242 281 7 
E 244 430 9 
E 244 438 2 
E 245 253 5 
E 246 252 9 
E 246 335 6 
E 246 482 3 
E 247 471 4 
E 248 256 9 
E 248 478 8 
E 249 336 6 
E 249 429 5 
E 250 283 8 
E 250 362 1 
E 250 429 2 
E 250 492 9 
E 251 467 8 
E 253 299 2 
E 253 446 2 
E 254 407 3 
E 256 274 3 
E 257 366 6 
E 258 323 5 
E 258 496 5 
E 259 340 4 
E 259 462 2 
E 260 303 1 
E 261 457 6 
E 262 412 6 
E 263 277 2 
E 264 372 5 
E 265 381 5 
E 265 491 8 
E 266 406 7 
E 266 442 6 
E 266 483 9 
E 267 490 9 
E 269 332 2 
E 269 432 1 
E 269 452 9 
E 270 326 7 
E 270 388 6 
E 270 395 5 
E 270 481 9 
E 271 389 8 
E 271 418 7 
E 272 273 4 
E 272 500 6 
E 273 391 2 
E 275 424 9 
E 276 340 8 
E 277 448 4 
E 277 483 10 
E 278 299 8 
E 278 386 9 
E 278 476 3 
E 280 393 5 
E 280 491 8 
E 281 287 7 
E 281 357 7 
E 282 287 6 
E 282 329 4 
E 284 322 10 
E 287 366 9 
E 287 375 1 
E 287 425 3 
E 287 435 5 
E 287 487 8 
E 288 434 9 
E 289 291 3 
E 290 322 8 
E 290 372 9 
E 290 402 10 
E 290 486 4 
E 291 402 7 
E 292 325 7 
E 295 496 1 
E 297 427 6 
E 298 422 2 
E 302 483 2 
E 304 386 6 
E 304 480 2 
E 305 422 6 
E 306 394 9 
E 306 452 10 
E 309 491 9 
E 310 409 5 
E 310 485 8 
E 311 425 8 
E 311 467 10 
E 314 326 1 
E 314 458 4 
E 317 413 5 
E 318 326 9 
E 319 360 10 
E 322 443 7 
E 325 335 2 
E 325 451 6 
E 325 467 9 
E 327 453 2 
E 328 478 1 
E 329 411 2 
E 331 337 9 
E 337 453 1 
E 339 376 7 
E 340 348 10 
E 340 427 8 
E 340 433 6 
E 340 440 9 
E 340 471 4 
E 341 464 4 
E 342 380 8 
E 344 431 7 
E 344 471 2 
E 344 483 10 
E 349 454 10 
E 350 400 10 
E 352 422 3 
E 354 420 1 
E 355 436 2 
E 355 490 2 
E 356 430 6 
E 358 495 4 
E 359 429 7 
E 359 469 6 
E 361 380 1 
E 363 441 9 
E 363 473 4 
E 364 370 8 
E 365 438 3 
E 366 460 8 
E 369 452 3 
E 371 462 4 
E 373 387 1 
E 373 392 1 
E 374 379 3 
E 376 439 9 
E 377 475 2 
E 382 482 1 
E 382 484 2 
E 383 415 9 
E 384 464 2 
E 384 486 3 
E 385 396 7 
E 385 429 5 
E 387 499 2 
E 389 485 2 
E 393 465 8 
E 397 494 7 
E 398 471 5 
E 398 493 9 
E 399 446 8 
E 400 402 5 
E 400 494 6 
E 402 441 1 
E 402 471 2 
E 405 458 8 
E 408 485 10 
E 410 484 2 
E 412 437 8 
E 415 474 3 
E 420 439 8 
E 426 457 9 
E 427 437 4 
E 428 464 7 
E 437 494 6 
E 444 471 9 
E 444 494 10 
E 447 479 10 
E 465 472 8 
E 479 480 3 
END 

SECTION ProfitableVertices 
ProfitableVertices 10 
PV 1 5
PV 146 7
PV 157 9
PV 225 5
PV 242 5
PV 246 8
PV 265 3
PV 353 6
PV 391 3
PV 407 8
END 

EOF 
